1000
[108,124,132,177,178,189,210,219,235,247,273,291,312,316,323,347,348,351,353,365,372,380,382,419,430,448,455,463,496,519,521,529,550,552,562,570,603,634,636,641,652,677,684,732,740,748,763,785]
[1,1,1,1,1,1,1,1,1,1,1,1,1,1,1,1,1,1,1,1,2,1,1,1,1,1,1,1,1,1,1,1,1,1,1,1,1,1,1,1,1,1,1,1,2,1,1,1]
